single_objective/SL-DABL/OP/problems/op/OPLib-master/instances/gen4/d198-gen4-40.oplib
NAME : d198
COMMENT : Drilling problem (Reinelt)
TYPE : OP
DIMENSION : 198
COST_LIMIT : 6312
EDGE_WEIGHT_TYPE : EUC_2D
NODE_COORD_SECTION
1 0.00000e+00 0.00000e+00
2 5.51200e+02 9.96400e+02
3 6.27400e+02 9.96400e+02
4 7.03600e+02 9.96400e+02
5 7.03600e+02 1.04720e+03
6 6.27400e+02 1.04720e+03
7 5.51200e+02 1.04720e+03
8 8.81400e+02 1.35200e+03
9 9.32200e+02 1.35200e+03
10 9.57600e+02 1.35200e+03
11 9.83000e+02 1.35200e+03
12 1.00840e+03 1.35200e+03
13 1.03380e+03 1.35200e+03
14 1.31320e+03 1.12340e+03
15 1.28780e+03 1.09800e+03
16 1.28780e+03 9.96400e+02
17 1.31320e+03 9.96400e+02
18 1.46560e+03 9.96400e+02
19 1.51640e+03 9.96400e+02
20 1.59260e+03 9.96400e+02
21 1.59260e+03 1.09800e+03
22 1.51640e+03 1.09800e+03
23 1.46560e+03 1.09800e+03
24 1.56720e+03 1.12340e+03
25 1.59260e+03 1.14880e+03
26 1.56720e+03 1.17420e+03
27 1.54180e+03 1.17420e+03
28 1.49100e+03 1.17420e+03
29 1.44020e+03 1.17420e+03
30 1.46560e+03 1.19960e+03
31 1.41480e+03 1.22500e+03
32 1.44020e+03 1.22500e+03
33 1.49100e+03 1.22500e+03
34 1.51640e+03 1.22500e+03
35 1.59260e+03 1.25040e+03
36 1.46560e+03 1.25040e+03
37 1.44020e+03 1.25040e+03
38 1.38940e+03 1.25040e+03
39 1.54180e+03 1.27580e+03
40 1.16080e+03 1.12340e+03
41 1.16080e+03 1.22500e+03
42 1.26240e+03 1.30120e+03
43 1.28780e+03 1.30120e+03
44 1.33860e+03 1.30120e+03
45 1.41480e+03 1.30120e+03
46 1.49100e+03 1.30120e+03
47 1.54180e+03 1.30120e+03
48 1.64340e+03 1.30120e+03
49 1.66880e+03 1.32660e+03
50 1.61800e+03 1.32660e+03
51 1.56720e+03 1.32660e+03
52 1.51640e+03 1.32660e+03
53 1.46560e+03 1.32660e+03
54 1.41480e+03 1.32660e+03
55 1.33860e+03 1.32660e+03
56 1.31320e+03 1.32660e+03
57 1.23700e+03 1.32660e+03
58 1.23700e+03 1.35200e+03
59 1.31320e+03 1.35200e+03
60 1.33860e+03 1.35200e+03
61 1.41480e+03 1.35200e+03
62 1.46560e+03 1.35200e+03
63 1.69420e+03 1.35200e+03
64 1.61800e+03 1.37740e+03
65 1.51640e+03 1.37740e+03
66 1.41480e+03 1.37740e+03
67 1.33860e+03 1.37740e+03
68 1.31320e+03 1.37740e+03
69 1.23700e+03 1.37740e+03
70 1.35770e+03 1.39010e+03
71 1.23700e+03 1.40280e+03
72 1.31320e+03 1.40280e+03
73 1.33860e+03 1.40280e+03
74 1.41480e+03 1.40280e+03
75 1.46560e+03 1.40280e+03
76 1.56720e+03 1.40280e+03
77 1.59260e+03 1.40280e+03
78 1.61800e+03 1.40280e+03
79 1.69420e+03 1.42820e+03
80 1.66880e+03 1.42820e+03
81 1.54180e+03 1.42820e+03
82 1.44020e+03 1.42820e+03
83 1.41480e+03 1.42820e+03
84 1.33860e+03 1.42820e+03
85 1.26240e+03 1.42820e+03
86 1.23700e+03 1.45360e+03
87 1.33860e+03 1.45360e+03
88 1.41480e+03 1.45360e+03
89 1.46560e+03 1.45360e+03
90 1.49100e+03 1.45360e+03
91 1.66880e+03 1.45360e+03
92 1.69420e+03 1.45360e+03
93 1.61800e+03 1.47900e+03
94 1.59260e+03 1.47900e+03
95 1.56720e+03 1.47900e+03
96 1.51640e+03 1.47900e+03
97 1.44020e+03 1.47900e+03
98 1.41480e+03 1.47900e+03
99 1.33860e+03 1.47900e+03
100 1.26240e+03 1.47900e+03
101 1.59260e+03 1.50440e+03
102 1.61800e+03 1.50440e+03
103 1.66880e+03 1.52980e+03
104 1.69420e+03 1.52980e+03
105 1.74500e+03 1.52980e+03
106 1.82120e+03 1.52980e+03
107 1.84660e+03 1.52980e+03
108 1.94820e+03 1.52980e+03
109 1.92280e+03 1.55520e+03
110 1.89740e+03 1.55520e+03
111 1.87200e+03 1.55520e+03
112 1.82120e+03 1.55520e+03
113 1.79580e+03 1.55520e+03
114 1.77040e+03 1.55520e+03
115 1.77040e+03 1.65680e+03
116 1.79580e+03 1.65680e+03
117 1.82120e+03 1.65680e+03
118 1.87200e+03 1.65680e+03
119 1.89740e+03 1.65680e+03
120 1.92280e+03 1.65680e+03
121 1.80850e+03 1.69490e+03
122 1.75770e+03 1.69490e+03
123 1.88470e+03 1.73300e+03
124 1.99900e+03 1.73300e+03
125 2.07520e+03 1.73300e+03
126 2.11330e+03 1.73300e+03
127 2.17680e+03 1.73300e+03
128 2.23650e+03 1.73300e+03
129 2.17680e+03 1.78380e+03
130 2.12600e+03 1.78380e+03
131 2.10060e+03 1.78380e+03
132 2.10060e+03 1.80920e+03
133 2.12600e+03 1.80920e+03
134 2.10060e+03 1.83460e+03
135 2.12600e+03 1.83460e+03
136 2.15140e+03 1.83460e+03
137 2.23650e+03 1.84730e+03
138 1.99900e+03 1.84730e+03
139 1.88470e+03 1.84730e+03
140 2.10060e+03 1.86000e+03
141 2.12600e+03 1.86000e+03
142 2.10060e+03 1.88540e+03
143 2.12600e+03 1.88540e+03
144 2.17680e+03 1.88540e+03
145 2.15140e+03 1.91080e+03
146 2.12600e+03 1.91080e+03
147 2.10060e+03 1.91080e+03
148 2.10060e+03 1.93620e+03
149 2.12600e+03 1.93620e+03
150 2.17680e+03 1.93620e+03
151 2.22760e+03 1.93620e+03
152 2.12600e+03 1.96160e+03
153 2.10060e+03 1.96160e+03
154 1.79580e+03 1.98700e+03
155 1.82120e+03 1.98700e+03
156 1.84660e+03 1.98700e+03
157 1.87200e+03 1.98700e+03
158 1.89740e+03 1.98700e+03
159 1.94820e+03 1.98700e+03
160 2.05620e+03 1.98700e+03
161 2.10060e+03 1.98700e+03
162 2.12600e+03 1.98700e+03
163 2.25300e+03 1.98700e+03
164 2.30380e+03 1.98700e+03
165 2.38000e+03 1.98700e+03
166 2.40540e+03 1.98700e+03
167 2.02440e+03 1.40280e+03
168 2.15140e+03 1.40280e+03
169 2.07520e+03 1.70760e+03
170 2.17680e+03 1.70760e+03
171 2.35080e+03 1.73300e+03
172 2.35080e+03 1.84730e+03
173 3.65210e+03 1.01030e+03
174 3.72570e+03 1.01030e+03
175 3.72570e+03 1.08650e+03
176 3.65210e+03 1.08650e+03
177 3.72620e+03 1.14880e+03
178 3.80240e+03 1.14880e+03
179 3.85320e+03 1.14880e+03
180 3.80240e+03 1.17420e+03
181 3.70080e+03 1.17420e+03
182 3.60560e+03 1.19960e+03
183 3.70080e+03 1.19960e+03
184 3.80240e+03 1.19960e+03
185 3.85320e+03 1.19960e+03
186 4.02830e+03 1.31030e+03
187 3.95210e+03 1.31030e+03
188 3.72830e+03 1.31030e+03
189 3.65210e+03 1.31030e+03
190 3.65210e+03 1.38650e+03
191 3.72830e+03 1.38650e+03
192 3.95210e+03 1.38650e+03
193 4.02830e+03 1.38650e+03
194 3.85320e+03 1.12340e+03
195 3.95210e+03 1.08650e+03
196 4.02830e+03 1.08650e+03
197 4.02830e+03 1.01030e+03
198 3.95210e+03 1.01030e+03
NODE_SCORE_SECTION
1 74
2 15
3 56
4 97
5 38
6 79
7 20
8 61
9 2
10 43
11 84
12 25
13 66
14 7
15 48
16 89
17 30
18 71
19 12
20 53
21 94
22 35
23 76
24 17
25 58
26 99
27 40
28 81
29 22
30 63
31 4
32 45
33 86
34 27
35 68
36 9
37 50
38 91
39 32
40 73
41 14
42 55
43 96
44 37
45 78
46 19
47 60
48 1
49 42
50 83
51 24
52 65
53 6
54 47
55 88
56 29
57 70
58 11
59 52
60 93
61 34
62 75
63 16
64 57
65 98
66 39
67 80
68 21
69 62
70 3
71 44
72 85
73 26
74 67
75 8
76 49
77 90
78 31
79 72
80 13
81 54
82 95
83 36
84 77
85 18
86 59
87 100
88 41
89 82
90 23
91 64
92 5
93 46
94 87
95 28
96 69
97 10
98 51
99 92
100 33
101 74
102 15
103 56
104 97
105 38
106 79
107 20
108 61
109 2
110 43
111 84
112 25
113 66
114 7
115 48
116 89
117 30
118 71
119 12
120 53
121 94
122 35
123 76
124 17
125 58
126 99
127 40
128 81
129 22
130 63
131 4
132 45
133 86
134 27
135 68
136 9
137 50
138 91
139 32
140 73
141 14
142 55
143 96
144 37
145 78
146 19
147 60
148 1
149 42
150 83
151 24
152 65
153 6
154 47
155 88
156 29
157 70
158 11
159 52
160 93
161 34
162 75
163 16
164 57
165 98
166 39
167 80
168 21
169 62
170 3
171 44
172 85
173 26
174 67
175 8
176 49
177 90
178 31
179 72
180 13
181 54
182 95
183 36
184 77
185 18
186 59
187 100
188 41
189 82
190 23
191 64
192 5
193 46
194 87
195 28
196 69
197 10
198 51
DEPOT_SECTION
1
-1
EOF
