single_objective/SL-DABL/OP/problems/op/OPLib-master/solutions/ea4op/gen4/d198-gen4-40.sol
NAME : d198
TYPE : OP
DIMENSION : 198
COST_LIMIT : 6312
ROUTE_NODES : 79
ROUTE_SCORE : 4654
ROUTE_COST : 6312
NODE_SEQUENCE_SECTION
1
3
6
4
5
8
9
10
11
12
13
71
69
58
57
42
43
44
55
56
59
60
67
68
72
73
84
87
99
98
88
83
74
82
89
90
96
95
101
94
93
102
103
104
91
79
80
78
77
64
50
35
39
47
52
65
62
66
61
54
45
38
31
32
37
36
33
30
28
27
26
25
21
24
22
23
18
17
16
-1
DEPOT_SECTION
1
-1
EOF
